Welcome to the CBC MILP Solver 
Version: 2.10.7 
Build Date: Feb 14 2022 

command line - cbc inputs/new_tr/order/jump_2_10_reverse_tiers_input.lp sec 1800 solve solu solutions/new_tr/jump_2_10_reverse_tiers_input.lp (default strategy 1)
seconds was changed from 1e+100 to 1800
Continuous objective value is 18525.1 - 0.00 seconds
Cgl0002I 24 variables fixed
Cgl0003I 0 fixed, 1 tightened bounds, 33 strengthened rows, 0 substitutions
Cgl0003I 0 fixed, 0 tightened bounds, 8 strengthened rows, 0 substitutions
Cgl0003I 0 fixed, 0 tightened bounds, 1 strengthened rows, 0 substitutions
Cgl0004I processed model has 172 rows, 65 columns (65 integer (54 of which binary)) and 563 elements
Cutoff increment increased from 1e-05 to 0.9999
Cbc0045I 1 integer variables out of 65 objects (65 integer) have cost of 1 - high priority
Cbc0045I branch on satisfied Y create fake objective Y random cost Y
Cbc0038I Initial state - 42 integers unsatisfied sum - 11.9474
Cbc0038I Pass   1: suminf.    4.06581 (17) obj. 20480 iterations 36
Cbc0038I Pass   2: suminf.    4.06250 (14) obj. 20480 iterations 9
Cbc0038I Pass   3: suminf.    0.00000 (0) obj. 20480 iterations 15
Cbc0038I Solution found of 20480
Cbc0038I Cleaned solution of 20480
Cbc0038I Before mini branch and bound, 21 integers at bound fixed and 0 continuous
Cbc0038I Full problem 172 rows 65 columns, reduced to 84 rows 31 columns
Cbc0038I Mini branch and bound did not improve solution (0.01 seconds)
Cbc0038I Round again with cutoff of 20283.6
Cbc0038I Pass   4: suminf.    4.25034 (28) obj. 20283 iterations 11
Cbc0038I Pass   5: suminf.    4.70162 (27) obj. 20283.6 iterations 11
Cbc0038I Pass   6: suminf.    4.01037 (14) obj. 20283.6 iterations 25
Cbc0038I Pass   7: suminf.    3.71242 (14) obj. 20283.6 iterations 4
Cbc0038I Pass   8: suminf.    0.63740 (9) obj. 20283.6 iterations 9
Cbc0038I Pass   9: suminf.    0.63740 (9) obj. 20283.6 iterations 1
Cbc0038I Pass  10: suminf.    2.88055 (9) obj. 20283.6 iterations 6
Cbc0038I Pass  11: suminf.    7.59835 (26) obj. 20283.6 iterations 20
Cbc0038I Pass  12: suminf.    6.01613 (24) obj. 20283.6 iterations 8
Cbc0038I Pass  13: suminf.    4.87339 (21) obj. 20283.6 iterations 6
Cbc0038I Pass  14: suminf.    0.63740 (9) obj. 20283.6 iterations 32
Cbc0038I Pass  15: suminf.    2.88055 (9) obj. 20283.6 iterations 9
Cbc0038I Pass  16: suminf.    4.58886 (23) obj. 20283.6 iterations 16
Cbc0038I Pass  17: suminf.    4.19176 (18) obj. 20283.6 iterations 13
Cbc0038I Pass  18: suminf.    3.13391 (16) obj. 20283.6 iterations 17
Cbc0038I Pass  19: suminf.    0.63740 (9) obj. 20283.6 iterations 6
Cbc0038I Pass  20: suminf.    2.88055 (9) obj. 20283.6 iterations 3
Cbc0038I Pass  21: suminf.    9.07048 (31) obj. 20283.6 iterations 22
Cbc0038I Pass  22: suminf.    4.16627 (17) obj. 20283.6 iterations 18
Cbc0038I Pass  23: suminf.    0.63740 (9) obj. 20283.6 iterations 33
Cbc0038I Pass  24: suminf.    0.63740 (9) obj. 20283.6 iterations 0
Cbc0038I Pass  25: suminf.    2.88055 (9) obj. 20283.6 iterations 7
Cbc0038I Pass  26: suminf.    7.76345 (29) obj. 20283.6 iterations 44
Cbc0038I Pass  27: suminf.    4.77506 (22) obj. 20283.6 iterations 15
Cbc0038I Pass  28: suminf.    4.44311 (18) obj. 20283.6 iterations 7
Cbc0038I Pass  29: suminf.    3.81965 (24) obj. 20283.6 iterations 20
Cbc0038I Pass  30: suminf.    3.94179 (26) obj. 20283.6 iterations 4
Cbc0038I Pass  31: suminf.    7.59502 (37) obj. 20283.6 iterations 36
Cbc0038I Pass  32: suminf.    7.11038 (32) obj. 20283.6 iterations 10
Cbc0038I Pass  33: suminf.    7.50426 (32) obj. 20283.6 iterations 2
Cbc0038I Pass  34: suminf.    2.88055 (9) obj. 20283.6 iterations 22
Cbc0038I Pass  35: suminf.    2.88055 (9) obj. 20283.6 iterations 12
Cbc0038I Pass  36: suminf.    0.63740 (9) obj. 20283.6 iterations 11
Cbc0038I Pass  37: suminf.    5.52176 (29) obj. 20283.6 iterations 32
Cbc0038I Pass  38: suminf.    0.90225 (18) obj. 20283.6 iterations 16
Cbc0038I Pass  39: suminf.    0.74700 (12) obj. 20283.6 iterations 1
Cbc0038I Pass  40: suminf.    2.88055 (9) obj. 20283.6 iterations 3
Cbc0038I Pass  41: suminf.    0.63740 (9) obj. 20283.6 iterations 4
Cbc0038I Pass  42: suminf.    1.10709 (18) obj. 20283.6 iterations 18
Cbc0038I Pass  43: suminf.    0.63740 (9) obj. 20283.6 iterations 12
Cbc0038I Pass  44: suminf.    2.88055 (9) obj. 20283.6 iterations 5
Cbc0038I Pass  45: suminf.    6.31722 (29) obj. 20283.6 iterations 27
Cbc0038I Pass  46: suminf.    4.23843 (21) obj. 20283.6 iterations 12
Cbc0038I Pass  47: suminf.    2.17382 (16) obj. 20283.6 iterations 16
Cbc0038I Pass  48: suminf.    0.63740 (9) obj. 20283.6 iterations 3
Cbc0038I Pass  49: suminf.    2.88055 (9) obj. 20283.6 iterations 2
Cbc0038I Pass  50: suminf.    5.07578 (17) obj. 20283.6 iterations 22
Cbc0038I Pass  51: suminf.    2.88055 (9) obj. 20283.6 iterations 17
Cbc0038I Pass  52: suminf.    0.63740 (9) obj. 20283.6 iterations 5
Cbc0038I Pass  53: suminf.    5.46483 (30) obj. 20283.6 iterations 30
Cbc0038I Pass  54: suminf.    2.61032 (22) obj. 20283.6 iterations 14
Cbc0038I Pass  55: suminf.    2.61032 (22) obj. 20283.6 iterations 10
Cbc0038I Pass  56: suminf.    5.10834 (20) obj. 20283.6 iterations 21
Cbc0038I Pass  57: suminf.    2.88055 (9) obj. 20283.6 iterations 6
Cbc0038I Pass  58: suminf.    0.63740 (9) obj. 20283.6 iterations 7
Cbc0038I Pass  59: suminf.    1.76238 (18) obj. 20283.6 iterations 22
Cbc0038I Pass  60: suminf.    1.44693 (17) obj. 20283.6 iterations 7
Cbc0038I Pass  61: suminf.    3.51517 (17) obj. 20283.6 iterations 15
Cbc0038I Pass  62: suminf.    1.77667 (17) obj. 20283.6 iterations 10
Cbc0038I Pass  63: suminf.    2.41748 (26) obj. 20283.6 iterations 13
Cbc0038I Pass  64: suminf.    2.08680 (18) obj. 20283.6 iterations 10
Cbc0038I Pass  65: suminf.    2.88055 (9) obj. 20283.6 iterations 17
Cbc0038I Pass  66: suminf.    2.88055 (9) obj. 20283.6 iterations 8
Cbc0038I Pass  67: suminf.    0.63740 (9) obj. 20283.6 iterations 7
Cbc0038I Pass  68: suminf.    6.71119 (35) obj. 20283.6 iterations 38
Cbc0038I Pass  69: suminf.    2.80407 (18) obj. 20283.6 iterations 32
Cbc0038I Pass  70: suminf.    2.88055 (9) obj. 20283.6 iterations 19
Cbc0038I Pass  71: suminf.    0.63740 (9) obj. 20283.6 iterations 9
Cbc0038I Pass  72: suminf.    2.28130 (19) obj. 20283.6 iterations 26
Cbc0038I Pass  73: suminf.    0.63740 (9) obj. 20283.6 iterations 13
Cbc0038I Pass  74: suminf.    2.88055 (9) obj. 20283.6 iterations 9
Cbc0038I Pass  75: suminf.    4.70860 (23) obj. 20283.6 iterations 19
Cbc0038I Pass  76: suminf.    2.88055 (9) obj. 20283.6 iterations 17
Cbc0038I Pass  77: suminf.    5.82833 (19) obj. 20283.6 iterations 21
Cbc0038I Pass  78: suminf.    2.88055 (9) obj. 20283.6 iterations 22
Cbc0038I Pass  79: suminf.    0.63740 (9) obj. 20283.6 iterations 17
Cbc0038I Pass  80: suminf.    5.72245 (27) obj. 20283.6 iterations 40
Cbc0038I Pass  81: suminf.    4.78342 (29) obj. 20283.6 iterations 13
Cbc0038I Pass  82: suminf.    6.54195 (26) obj. 20283.6 iterations 31
Cbc0038I Pass  83: suminf.    5.41015 (21) obj. 20283.6 iterations 13
Cbc0038I Pass  84: suminf.    7.16566 (27) obj. 20283.6 iterations 38
Cbc0038I Pass  85: suminf.    3.41181 (21) obj. 20283.6 iterations 18
Cbc0038I Pass  86: suminf.    2.88055 (9) obj. 20283.6 iterations 27
Cbc0038I Pass  87: suminf.    2.88055 (9) obj. 20283.6 iterations 22
Cbc0038I Pass  88: suminf.    0.63740 (9) obj. 20283.6 iterations 10
Cbc0038I Pass  89: suminf.    3.76680 (27) obj. 20283.6 iterations 22
Cbc0038I Pass  90: suminf.    1.58822 (16) obj. 20283.6 iterations 15
Cbc0038I Pass  91: suminf.    2.88055 (9) obj. 20283.6 iterations 22
Cbc0038I Pass  92: suminf.    0.63740 (9) obj. 20283.6 iterations 4
Cbc0038I Pass  93: suminf.    3.64564 (21) obj. 20283.6 iterations 31
Cbc0038I Pass  94: suminf.    0.63740 (9) obj. 20283.6 iterations 23
Cbc0038I Pass  95: suminf.    2.88055 (9) obj. 20283.6 iterations 7
Cbc0038I Pass  96: suminf.    7.42462 (25) obj. 20283.6 iterations 20
Cbc0038I Pass  97: suminf.    4.77495 (22) obj. 20283.6 iterations 15
Cbc0038I Pass  98: suminf.    3.60940 (15) obj. 20283.6 iterations 7
Cbc0038I Pass  99: suminf.    0.69718 (12) obj. 20283.6 iterations 19
Cbc0038I Pass 100: suminf.    0.63740 (9) obj. 20283.6 iterations 10
Cbc0038I Pass 101: suminf.    2.88055 (9) obj. 20283.6 iterations 6
Cbc0038I Pass 102: suminf.    6.77947 (27) obj. 20283.6 iterations 39
Cbc0038I Pass 103: suminf.   12.32645 (43) obj. 20283.6 iterations 43
Cbc0038I No solution found this major pass
Cbc0038I Before mini branch and bound, 0 integers at bound fixed and 0 continuous
Cbc0038I Full problem 172 rows 65 columns, reduced to 172 rows 65 columns - 8 fixed gives 144, 53 - still too large
Cbc0038I Mini branch and bound did not improve solution (0.06 seconds)
Cbc0038I After 0.06 seconds - Feasibility pump exiting with objective of 20480 - took 0.06 seconds
Cbc0012I Integer solution of 20480 found by feasibility pump after 0 iterations and 0 nodes (0.06 seconds)
Cbc0038I Full problem 172 rows 65 columns, reduced to 83 rows 30 columns
Cbc0006I The LP relaxation is infeasible or too expensive
Cbc0013I At root node, 0 cuts changed objective from 18525.091 to 18525.091 in 1 passes
Cbc0014I Cut generator 0 (Probing) - 7 row cuts average 1.7 elements, 7 column cuts (7 active)  in 0.000 seconds - new frequency is 1
Cbc0014I Cut generator 1 (Gomory) - 0 row cuts average 0.0 elements, 0 column cuts (0 active)  in 0.000 seconds - new frequency is -100
Cbc0014I Cut generator 2 (Knapsack) - 0 row cuts average 0.0 elements, 0 column cuts (0 active)  in 0.000 seconds - new frequency is -100
Cbc0014I Cut generator 3 (Clique) - 0 row cuts average 0.0 elements, 0 column cuts (0 active)  in 0.000 seconds - new frequency is -100
Cbc0014I Cut generator 4 (MixedIntegerRounding2) - 0 row cuts average 0.0 elements, 0 column cuts (0 active)  in 0.000 seconds - new frequency is -100
Cbc0014I Cut generator 5 (FlowCover) - 0 row cuts average 0.0 elements, 0 column cuts (0 active)  in 0.000 seconds - new frequency is -100
Cbc0014I Cut generator 6 (TwoMirCuts) - 0 row cuts average 0.0 elements, 0 column cuts (0 active)  in 0.000 seconds - new frequency is -100
Cbc0014I Cut generator 7 (ZeroHalf) - 0 row cuts average 0.0 elements, 0 column cuts (0 active)  in 0.000 seconds - new frequency is -100
Cbc0001I Search completed - best objective 20480, took 0 iterations and 0 nodes (0.07 seconds)
Cbc0035I Maximum depth 0, 0 variables fixed on reduced cost
Cuts at root node changed objective from 18525.1 to 18525.1
Probing was tried 1 times and created 14 cuts of which 0 were active after adding rounds of cuts (0.000 seconds)
Gomory was tried 0 times and created 0 cuts of which 0 were active after adding rounds of cuts (0.000 seconds)
Knapsack was tried 0 times and created 0 cuts of which 0 were active after adding rounds of cuts (0.000 seconds)
Clique was tried 0 times and created 0 cuts of which 0 were active after adding rounds of cuts (0.000 seconds)
MixedIntegerRounding2 was tried 0 times and created 0 cuts of which 0 were active after adding rounds of cuts (0.000 seconds)
FlowCover was tried 0 times and created 0 cuts of which 0 were active after adding rounds of cuts (0.000 seconds)
TwoMirCuts was tried 0 times and created 0 cuts of which 0 were active after adding rounds of cuts (0.000 seconds)
ZeroHalf was tried 0 times and created 0 cuts of which 0 were active after adding rounds of cuts (0.000 seconds)

Result - Optimal solution found

Objective value:                20480.00000000
Enumerated nodes:               0
Total iterations:               0
Time (CPU seconds):             0.07
Time (Wallclock seconds):       0.07

Total time (CPU seconds):       0.07   (Wallclock seconds):       0.08

